; benchmark generated from python API
(set-info :status unknown)
(declare-fun A_0 () Real)
(declare-fun S_1 () Real)
(declare-fun L_0 () Real)
(declare-fun C () Real)
(declare-fun S_0 () Real)
(declare-fun L0 () Real)
(declare-fun S_4 () Real)
(declare-fun A_3 () Real)
(declare-fun L_1 () Real)
(declare-fun S_2 () Real)
(declare-fun L_3 () Real)
(declare-fun A_1 () Real)
(declare-fun L_2 () Real)
(declare-fun A_4 () Real)
(declare-fun S_3 () Real)
(declare-fun A_2 () Real)
(assert
 (let (($x37 (>= L0 0.0)))
 (let (($x621 (>= C 5.0)))
 (let (($x13604 (<= (+ (* 3.0 C) S_0 (* (- 1.0) S_4)) 0.0)))
 (let (($x8492 (<= (+ (* (- 1.0) L_1) A_3 (* (- 1.0) S_4)) 0.0)))
 (let (($x12814 (<= (+ (* 2.0 C) A_1 L_3 (* (- 1.0) A_3) (* (- 1.0) L_0)) 0.0)))
 (let (($x3507 (= L_3 L_0)))
 (let (($x3490 (not (= L_0 L_2))))
 (let ((?x501 (* (- 1.0) A_3)))
 (let ((?x1137 (* 2.0 C)))
 (let ((?x486 (* (- 1.0) L_1)))
 (let ((?x12528 (+ ?x486 A_1 L_3 ?x1137 ?x501)))
 (let (($x12840 (not (= 0.0 ?x12528))))
 (let ((?x476 (* (- 1.0) S_4)))
 (let ((?x509 (* (- 1.0) A_1)))
 (let ((?x321 (* (- 1.0) L_3)))
 (let (($x54 (= L_1 L_0)))
 (let (($x11509 (<= (+ (* (- 1.0) C) (* (- 1.0) A_2) A_3) 0.0)))
 (let (($x1687 (not (= L_2 L_3))))
 (let (($x12552 (<= (+ ?x486 L_3 C ?x501 A_2) 0.0)))
 (let (($x1580 (= L_3 L_1)))
 (let (($x1564 (not (= L_1 L_2))))
 (let (($x12323 (= (+ (* (- 1.0) C) (* (- 1.0) A_2) ?x321 L_2 A_3) 0.0)))
 (let (($x1058 (<= 0.0 (+ (* (- 1.0) L_2) L_1))))
 (let (($x74 (= L_3 L_2)))
 (let (($x1448 (= L_2 L_0)))
 (let (($x1432 (not (= L_0 L_1))))
 (let (($x12424 (or $x1432 $x1448 (<= (+ C A_1 L_2 (* (- 1.0) A_2) (* (- 1.0) L_0)) 0.0))))
 (let (($x64 (= L_2 L_1)))
 (let (($x11482 (or $x54 $x64 (= (+ (* (- 1.0) C) A_2 (* (- 1.0) L_2) L_1 ?x509) 0.0))))
 (let (($x117 (>= S_3 S_2)))
 (let (($x123 (>= A_2 A_1)))
 (let (($x36 (>= L_0 L0)))
 (let (($x111 (>= S_1 S_0)))
 (let (($x114 (>= S_2 S_1)))
 (let (($x124 (>= A_3 A_2)))
 (let (($x125 (>= A_4 A_3)))
 (and (<= (+ A_2 (* (- 1.0) L_2)) S_4) (<= (+ A_0 (* (- 1.0) L_0)) S_3) (not (<= (+ A_1 ?x486) S_3)) $x125 $x124 $x114 $x111 $x36 $x123 $x117 (or $x54 (not (<= 0.0 (+ ?x486 L_0)))) $x11482 (<= (+ C (* (- 1.0) S_2) S_0) 0.0) $x12424 (or $x74 $x1432 $x1448 $x12323) (<= (+ (* (- 4.0) C) (* (- 1.0) S_1) S_4) 0.0) (<= (+ (* (- 4.0) C) L_0 S_4 (* (- 1.0) A_0)) 0.0) (or $x74 (not (<= 0.0 (+ ?x321 L_2)))) (or $x64 (not $x1058)) (<= (+ (* (- 5.0) C) (* (- 1.0) S_0) S_4) 0.0) (or (<= 0.0 (+ ?x486 L_0)) $x1580 (= ?x12528 0.0) (not $x12552)) (or $x54 $x1564 (<= (+ (* (- 1.0) C) A_2 ?x509) 0.0)) (or $x74 $x1058 $x12323) (or $x64 (not (<= 0.0 (+ ?x321 L_2))) $x11509) (or $x1564 $x1580 $x12552) (<= (+ C S_1 (* (- 1.0) S_3)) 0.0) (or $x12840 (<= (+ C S_2 ?x476) 0.0)) (<= (+ (* (- 3.0) C) S_2 (* (- 1.0) S_0)) 0.0) (<= (+ (* (- 2.0) C) S_2 (* (- 1.0) S_1)) 0.0) (<= (+ (* (- 2.0) C) (* (- 1.0) S_3) S_4) 0.0) (<= (+ (* (- 2.0) C) L_0 S_2 (* (- 1.0) A_0)) 0.0) (<= (+ (* (- 2.0) C) (* (- 1.0) S_2) S_3) 0.0) (<= (+ (* (- 3.0) C) S_3 L_0 (* (- 1.0) A_0)) 0.0) (<= (+ (* (- 3.0) C) (* (- 1.0) S_1) S_3) 0.0) (<= (+ (* (- 4.0) C) (* (- 1.0) S_0) S_3) 0.0) (or $x54 $x1687 $x11509 (<= (+ (* (- 2.0) C) ?x509 A_3) 0.0)) (<= (+ (* (- 1.0) C) L_1 ?x501 S_4) 0.0) (not (<= 0.0 (+ ?x1137 (* (- 1.0) A_2) L_2 S_0))) (<= (+ (* (- 3.0) C) (* (- 1.0) S_2) S_4) 0.0) (or $x54 (<= (+ ?x321 A_3 L_1 ?x509 S_1 ?x476) 0.0)) (or $x12840 $x13604) (or (not $x12814) (<= (+ C S_2 ?x476) 0.0)) (or (not $x12814) $x13604) (<= (+ ?x1137 S_0 (* (- 1.0) S_3)) 0.0) (<= (+ L_2 (* (- 1.0) A_4) S_4) 0.0) (or $x3490 $x3507 $x12814) (or $x8492 (<= (+ C S_2 ?x476) 0.0)) (or $x8492 (<= (+ ?x1137 S_1 ?x476) 0.0)) (or $x8492 $x13604) $x621 $x37 (<= (+ S_0 L_0 (* (- 1.0) A_0)) 0.0) (<= (+ (* (- 2.0) C) S_1 (* (- 1.0) S_0)) 0.0) (<= (+ (* (- 1.0) C) L_0 S_1 (* (- 1.0) A_0)) 0.0)))))))))))))))))))))))))))))))))))))))
(check-sat)
